k =2;
nObjects =5;
nRectangles =15;
nShapes =12; 
rect_size = [|
     4, 2|
     2, 4|
     4, 2|
     2, 4|

     1, 2|
     2, 1|
     1, 2|
     2, 1|

     2, 1|
     1, 2|

     1, 1|
     1, 1|
     1, 1|
     3, 4|
     0,0|];

rect_offset = [|
     0, 0|
     0, 0|
     0, 2|
     2, 0|

     2, 2|
     2, 1|
     1, 0|
     0, 2|

     0, 0|
     0, 0|

     0, 1|
     1, 1|
     0, 0|
     0, 0|
     0,0|];
     
shape = [
    { 1, 5 },
    { 2, 6 },
    { 3, 7 },
    { 4, 8 },

    { 9 },
    { 10 },

    { 9, 11 },
    { 10, 12 },
    { 7, 11 },
    { 7, 13 }, 
    {14},
    {15}
];
valid_shapes = [{1, 2, 3, 4}, {5, 6}, {7, 8, 9, 10},{11},{12}];
l = [0, 0];
u = [4, 4];